StudentsNr = 10;
InstructorsNr = 21;
DaysNr = 1;
SlotsPerDay = 20;
AvailabilitySlotsLenght = 10;
RoomNr = 1;
ProgrammNr = 1;
DegreeNr = 1;
RolesNr = 4;
CoursesNr = 10;
InstructorsProgramm = [{1}, {1}, {1}, {1}, {1}, {1}, {1}, {1}, {1}, {1}, {1}, {1}, {1}, {1}, {1}, {1}, {1}, {1}, {1}, {1}, {1}];
InstructorRolesPerProgramm = [|{2, 7, 8, 11, 15, 18, 20}, {3, 4, 6, 8, 13, 18, 20}, {1, 2, 3, 6, 10, 11, 16, 18, 21}, {3, 6, 7, 8, 10, 13, 19}|];
InstructorsAvailability = [|0, 0, |0, 0, |0, 1, |1, 1, |1, 1, |0, 1, |0, 0, |1, 1, |1, 1, |0, 1, |0, 1, |1, 1, |0, 1, |1, 1, |1, 1, |1, 1, |1, 1, |0, 0, |1, 1, |1, 1, |0, 1|];
StudentsProgramm = [1, 1, 1, 1, 1, 1, 1, 1, 1, 1];
StudentsDegree = [1, 1, 1, 1, 1, 1, 1, 1, 1, 1];
StudentsSupervisorId = [9, 7, 18, 7, 10, 16, 19, 16, 5, 10];
StudentsCourseIds = [{1, 2, 3, 5, 10}, {2, 3, 5, 6, 8}, {2, 4, 5, 9, 10}, {2, 3, 6, 8, 9}, {2, 4, 6, 7, 9}, {3, 4, 5, 7, 8}, {3, 5, 6, 8, 9}, {1, 3, 6, 7, 9}, {1, 2, 3, 8, 9}, {1, 2, 6, 8, 10}];
StudentsAvailability = [|1, 1, |0, 1, |1, 1, |0, 0, |0, 0, |0, 1, |0, 1, |0, 1, |0, 0, |1, 1|];
TheoryticalMinCard = [1, 0, 2, 0, 1, 1, 0, 0, 0, 1];
CoursesInstructorIds = [{1, 3, 5, 6, 8, 10, 13, 14, 17, 19, 20, 21}, {3, 16}, {1, 3, 4, 5, 7, 8, 9, 11, 13, 14, 16, 17, 18, 19, 20}, {12}, {2, 3, 4, 5, 6, 7, 8, 10, 11, 12, 15, 16, 19, 20, 21}, {4, 6, 11, 14}, {4, 15, 19, 20}, {1, 6, 7, 8, 10, 11, 12, 13, 15, 20}, {5, 7, 8, 9, 10, 15, 16, 17, 20}, {9, 17}];
RolesDemands = [1, 4, 4, 1];
RolesContinuity = [];
ExamLen = [2, 2, 2, 2, 2, 2, 2, 2, 2, 2];
LunchTsMinLen = 0;
LunchStarts = [10..13];
SupervisorAvailable = 5;
OptimalLunchLenght = [0, 2];
OptimalStartTs = [1, 0];
OptimalFinishTs = [2, 19];
MinimizeRooms = 200;
RolesSoftContinuity = [|1, 2, 3, 4|1, 0, 4, 2|];
SameDegreeInRoom = 0;
Mergeability = 0;
